Version identifier: 22.1.1.0 | 2022-11-28 | 9160aff4d
CPXPARAM_TimeLimit                               3600
Tried aggregator 1 time.
MIP Presolve eliminated 214 rows and 165 columns.
Reduced MIP has 5386 rows, 2446 columns, and 16058 nonzeros.
Reduced MIP has 2446 binaries, 0 generals, 0 SOSs, and 0 indicators.
Presolve time = 0.01 sec. (12.41 ticks)
Found incumbent of value 4033481.000000 after 0.02 sec. (15.08 ticks)
Probing time = 0.00 sec. (3.49 ticks)
Tried aggregator 1 time.
Detecting symmetries...
Reduced MIP has 5386 rows, 2446 columns, and 16058 nonzeros.
Reduced MIP has 2446 binaries, 0 generals, 0 SOSs, and 0 indicators.
Presolve time = 0.01 sec. (13.62 ticks)
Probing time = 0.01 sec. (3.49 ticks)
Clique table members: 2336.
MIP emphasis: balance optimality and feasibility.
MIP search method: dynamic search.
Parallel mode: deterministic, using up to 8 threads.
Root relaxation solution time = 0.01 sec. (10.46 ticks)

        Nodes                                         Cuts/
   Node  Left     Objective  IInf  Best Integer    Best Bound    ItCnt     Gap

*     0+    0                      4033481.0000        0.0000           100.00%
*     0+    0                      2106361.0000        0.0000           100.00%
*     0+    0                       499689.0000        0.0000           100.00%
*     0+    0                       312665.0000        0.0000           100.00%
*     0+    0                       287906.0000        0.0000           100.00%
      0     0    93774.0000   100   287906.0000    93774.0000      160   67.43%
      0     0   106217.5000   100   287906.0000     Cuts: 160      255   63.11%
*     0+    0                       138476.0000   106217.5000            23.30%
      0     0   117738.0000    86   138476.0000     Cuts: 159      381   14.98%
Detecting symmetries...

Repeating presolve.
Tried aggregator 1 time.
MIP Presolve eliminated 4769 rows and 1968 columns.
MIP Presolve modified 341 coefficients.
Reduced MIP has 617 rows, 478 columns, and 2041 nonzeros.
Reduced MIP has 478 binaries, 0 generals, 0 SOSs, and 0 indicators.
Presolve time = 0.00 sec. (4.20 ticks)
Probing time = 0.00 sec. (0.45 ticks)
Tried aggregator 1 time.
Detecting symmetries...
Reduced MIP has 617 rows, 478 columns, and 2041 nonzeros.
Reduced MIP has 478 binaries, 0 generals, 0 SOSs, and 0 indicators.
Presolve time = 0.00 sec. (2.05 ticks)
Represolve time = 0.01 sec. (11.22 ticks)
Probing time = 0.00 sec. (0.45 ticks)
Clique table members: 511.
MIP emphasis: balance optimality and feasibility.
MIP search method: dynamic search.
Parallel mode: deterministic, using up to 8 threads.
Root relaxation solution time = 0.01 sec. (6.07 ticks)

        Nodes                                         Cuts/
   Node  Left     Objective  IInf  Best Integer    Best Bound    ItCnt     Gap

*     0+    0                       138476.0000   117738.0000            14.98%
      0     0   130201.5000    84   138476.0000   130201.5000      623    5.98%
*     0+    0                       136909.0000   130201.5000             4.90%
      0     0   134361.0889   152   136909.0000      Cuts: 26      738    1.86%
      0     0   136326.9391   112   136909.0000      Cuts: 45      832    0.43%
      0     0        cutoff         136909.0000   136909.0000      832    0.00%
Elapsed time = 0.23 sec. (170.91 ticks, tree = 0.01 MB, solutions = 7)

Implied bound cuts applied:  92
Zero-half cuts applied:  8
Gomory fractional cuts applied:  1

Root node processing (before b&c):
  Real time             =    0.23 sec. (171.10 ticks)
Parallel b&c, 8 threads:
  Real time             =    0.00 sec. (0.00 ticks)
  Sync time (average)   =    0.00 sec.
  Wait time (average)   =    0.00 sec.
                          ------------
Total (root+branch&cut) =    0.23 sec. (171.10 ticks)
Status: Optimal
Obj: 136909

Instalacoes abertas:
Instalação 4 aberta
Instalação 9 aberta
Instalação 20 aberta
Instalação 22 aberta

Atribuições (cliente -> instalação):
Cliente 0 -> Instalação 9
Cliente 1 -> Instalação 9
Cliente 2 -> Instalação 9
Cliente 3 -> Instalação 20
Cliente 4 -> Instalação 4
Cliente 5 -> Instalação 20
Cliente 6 -> Instalação 9
Cliente 7 -> Instalação 9
Cliente 8 -> Instalação 4
Cliente 9 -> Instalação 9
Cliente 10 -> Instalação 20
Cliente 11 -> Instalação 20
Cliente 12 -> Instalação 4
Cliente 13 -> Instalação 9
Cliente 14 -> Instalação 4
Cliente 15 -> Instalação 9
Cliente 16 -> Instalação 20
Cliente 17 -> Instalação 20
Cliente 18 -> Instalação 20
Cliente 19 -> Instalação 9
Cliente 20 -> Instalação 20
Cliente 21 -> Instalação 9
Cliente 22 -> Instalação 22
Cliente 23 -> Instalação 4
Cliente 24 -> Instalação 9
Cliente 25 -> Instalação 9
Cliente 26 -> Instalação 4
Cliente 27 -> Instalação 20
Cliente 28 -> Instalação 9
Cliente 29 -> Instalação 9
Cliente 30 -> Instalação 20
Cliente 31 -> Instalação 9
Cliente 32 -> Instalação 9
Cliente 33 -> Instalação 4
Cliente 34 -> Instalação 9
Cliente 35 -> Instalação 9
Cliente 36 -> Instalação 20
Cliente 37 -> Instalação 20
Cliente 38 -> Instalação 4
Cliente 39 -> Instalação 4
Cliente 40 -> Instalação 9
Cliente 41 -> Instalação 20
Cliente 42 -> Instalação 4
Cliente 43 -> Instalação 9
Cliente 44 -> Instalação 9
Cliente 45 -> Instalação 4
Cliente 46 -> Instalação 4
Cliente 47 -> Instalação 9
Cliente 48 -> Instalação 20
Cliente 49 -> Instalação 9
